results_rootrelaxation/bin012_090_010.srr.sol
solution status: optimal solution found
objective value:                                   30
_var734_                            0.428571428571429 	(obj:1)
_var747_                            0.142857142857142 	(obj:4)
_var748_                            0.285714285714286 	(obj:4)
_var783_                            0.571428571428572 	(obj:1)
_var784_                            0.428571428571429 	(obj:3)
_var790_                                            1 	(obj:1)
_var791_                            0.142857142857144 	(obj:4)
_var814_                            0.142857142857142 	(obj:4)
_var822_                            0.142857142857144 	(obj:2)
_var847_                            0.285714285714285 	(obj:4)
_var850_                            0.142857142857143 	(obj:3)
_var851_                            0.285714285714285 	(obj:3)
_var861_                            0.428571428571428 	(obj:3)
_var868_                             0.42857142857143 	(obj:4)
_var870_                            0.571428571428571 	(obj:3)
_var877_                            0.428571428571427 	(obj:2)
_var879_                            0.142857142857143 	(obj:4)
_var882_                            0.142857142857143 	(obj:2)
_var884_                            0.142857142857143 	(obj:3)
_var885_                            0.142857142857143 	(obj:4)
_var886_                                            1 	(obj:2)
_var896_                            0.142857142857143 	(obj:4)
_var898_                            0.428571428571428 	(obj:3)
_var903_                            0.285714285714286 	(obj:4)
_var907_                            0.285714285714287 	(obj:4)
_var914_                            0.142857142857142 	(obj:3)
_var920_                            0.142857142857144 	(obj:3)
_var922_                            0.142857142857142 	(obj:4)
_var923_                            0.142857142857143 	(obj:4)
_var925_                            0.285714285714286 	(obj:1)
_var927_                            0.285714285714287 	(obj:3)
_var934_                            0.142857142857143 	(obj:4)
_var938_                            0.285714285714285 	(obj:3)
_var939_                            0.428571428571428 	(obj:4)
_var941_                            0.428571428571428 	(obj:3)
