results_rootrelaxation/bin012_090_010.srr.log
SCIP version 8.0.3.5 [precision: 8 byte] [memory: block] [mode: optimized] [LP solver: Soplex 6.0.1.3] [GitHash: 438792519e]
Copyright (c) 2002-2023 Zuse Institute Berlin (ZIB)

External libraries: 
  Readline 8.1         GNU library for command line editing (gnu.org/s/readline)
  Soplex 6.0.1.3       Linear Programming Solver developed at Zuse Institute Berlin (soplex.zib.de) [GitHash: 713be0fe]
  CppAD 20180000.0     Algorithmic Differentiation of C++ algorithms developed by B. Bell (github.com/coin-or/CppAD)
  ZLIB 1.2.11          General purpose compression library by J. Gailly and M. Adler (zlib.net)
  bliss 0.77           Computing Graph Automorphism Groups by T. Junttila and P. Kaski (www.tcs.hut.fi/Software/bliss/)

user parameter file <scip.set> not found - using default parameters

srr/relaxation = TRUE

read problem <instances/bin012_090_010.srr>
============

Original problem: 
original problem has 0 variables (0 bin, 0 int, 0 impl, 0 cont) and 77 constraints

presolving:
presolving (1 rounds: 1 fast, 1 medium, 1 exhaustive):
 0 deleted vars, 0 deleted constraints, 0 added constraints, 0 tightened bounds, 0 added holes, 0 changed sides, 0 changed coefficients
 0 implications, 0 cliques
presolved problem has 0 variables (0 bin, 0 int, 0 impl, 0 cont) and 77 constraints
     77 constraints of type <linear>
Presolving Time: 0.00

 time | node  | left  |LP iter|LP it/n|mem/heur|mdpt |vars |cons |rows |cuts |sepa|confs|strbr|  dualbound   | primalbound  |  gap   | compl. 
  0.0s|     1 |     0 |     1 |     - |   710k |   0 |   1 |  77 |  77 |   0 |  0 |   0 |   0 |      --      |      --      |    Inf | unknown
r 0.1s|     1 |     0 |  1184 |     - |simplero|   0 | 718 |  77 |  77 |   0 |  0 |   0 |   0 |      --      | 4.476906e+01 |    Inf | unknown
r 0.1s|     1 |     0 |  1205 |     - |simplero|   0 | 729 |  77 |  77 |   0 |  0 |   0 |   0 |      --      | 4.357210e+01 |    Inf | unknown
r 0.1s|     1 |     0 |  1249 |     - |simplero|   0 | 740 |  77 |  77 |   0 |  0 |   0 |   0 |      --      | 4.172387e+01 |    Inf | unknown
r 0.1s|     1 |     0 |  1307 |     - |simplero|   0 | 751 |  77 |  77 |   0 |  0 |   0 |   0 |      --      | 4.002749e+01 |    Inf | unknown
r 0.1s|     1 |     0 |  1347 |     - |simplero|   0 | 762 |  77 |  77 |   0 |  0 |   0 |   0 |      --      | 3.885670e+01 |    Inf | unknown
r 0.1s|     1 |     0 |  1366 |     - |simplero|   0 | 762 |  77 |  77 |   0 |  0 |   0 |   0 |      --      | 3.868054e+01 |    Inf | unknown
r 0.1s|     1 |     0 |  1375 |     - |simplero|   0 | 762 |  77 |  77 |   0 |  0 |   0 |   0 |      --      | 3.867232e+01 |    Inf | unknown
r 0.1s|     1 |     0 |  1410 |     - |simplero|   0 | 773 |  77 |  77 |   0 |  0 |   0 |   0 |      --      | 3.791993e+01 |    Inf | unknown
r 0.1s|     1 |     0 |  1449 |     - |simplero|   0 | 784 |  77 |  77 |   0 |  0 |   0 |   0 |      --      | 3.653995e+01 |    Inf | unknown
r 0.1s|     1 |     0 |  1456 |     - |simplero|   0 | 784 |  77 |  77 |   0 |  0 |   0 |   0 |      --      | 3.653589e+01 |    Inf | unknown
r 0.1s|     1 |     0 |  1498 |     - |simplero|   0 | 795 |  77 |  77 |   0 |  0 |   0 |   0 |      --      | 3.514238e+01 |    Inf | unknown
r 0.1s|     1 |     0 |  1518 |     - |simplero|   0 | 795 |  77 |  77 |   0 |  0 |   0 |   0 |      --      | 3.490957e+01 |    Inf | unknown
r 0.1s|     1 |     0 |  1528 |     - |simplero|   0 | 795 |  77 |  77 |   0 |  0 |   0 |   0 |      --      | 3.485220e+01 |    Inf | unknown
r 0.1s|     1 |     0 |  1569 |     - |simplero|   0 | 806 |  77 |  77 |   0 |  0 |   0 |   0 |      --      | 3.407022e+01 |    Inf | unknown
 time | node  | left  |LP iter|LP it/n|mem/heur|mdpt |vars |cons |rows |cuts |sepa|confs|strbr|  dualbound   | primalbound  |  gap   | compl. 
r 0.1s|     1 |     0 |  1581 |     - |simplero|   0 | 806 |  77 |  77 |   0 |  0 |   0 |   0 |      --      | 3.404133e+01 |    Inf | unknown
r 0.1s|     1 |     0 |  1610 |     - |simplero|   0 | 817 |  77 |  77 |   0 |  0 |   0 |   0 |      --      | 3.349677e+01 |    Inf | unknown
r 0.1s|     1 |     0 |  1617 |     - |simplero|   0 | 817 |  77 |  77 |   0 |  0 |   0 |   0 |      --      | 3.348080e+01 |    Inf | unknown
r 0.1s|     1 |     0 |  1620 |     - |simplero|   0 | 817 |  77 |  77 |   0 |  0 |   0 |   0 |      --      | 3.347927e+01 |    Inf | unknown
r 0.1s|     1 |     0 |  1622 |     - |simplero|   0 | 817 |  77 |  77 |   0 |  0 |   0 |   0 |      --      | 3.347780e+01 |    Inf | unknown
r 0.1s|     1 |     0 |  1655 |     - |simplero|   0 | 828 |  77 |  77 |   0 |  0 |   0 |   0 |      --      | 3.302601e+01 |    Inf | unknown
r 0.1s|     1 |     0 |  1665 |     - |simplero|   0 | 828 |  77 |  77 |   0 |  0 |   0 |   0 |      --      | 3.300035e+01 |    Inf | unknown
r 0.1s|     1 |     0 |  1713 |     - |simplero|   0 | 839 |  77 |  77 |   0 |  0 |   0 |   0 |      --      | 3.246313e+01 |    Inf | unknown
r 0.1s|     1 |     0 |  1738 |     - |simplero|   0 | 839 |  77 |  77 |   0 |  0 |   0 |   0 |      --      | 3.242252e+01 |    Inf | unknown
r 0.1s|     1 |     0 |  1746 |     - |simplero|   0 | 839 |  77 |  77 |   0 |  0 |   0 |   0 |      --      | 3.241650e+01 |    Inf | unknown
r 0.1s|     1 |     0 |  1786 |     - |simplero|   0 | 850 |  77 |  77 |   0 |  0 |   0 |   0 |      --      | 3.219752e+01 |    Inf | unknown
r 0.1s|     1 |     0 |  1796 |     - |simplero|   0 | 850 |  77 |  77 |   0 |  0 |   0 |   0 |      --      | 3.218458e+01 |    Inf | unknown
r 0.1s|     1 |     0 |  1803 |     - |simplero|   0 | 850 |  77 |  77 |   0 |  0 |   0 |   0 |      --      | 3.218014e+01 |    Inf | unknown
  0.1s|     1 |     0 |  1839 |     - |  4097k |   0 | 861 |  77 |  77 |   0 |  0 |   0 |   0 |      --      | 3.218014e+01 |    Inf | unknown
r 0.1s|     1 |     0 |  1839 |     - |simplero|   0 | 861 |  77 |  77 |   0 |  0 |   0 |   0 |      --      | 3.203173e+01 |    Inf | unknown
 time | node  | left  |LP iter|LP it/n|mem/heur|mdpt |vars |cons |rows |cuts |sepa|confs|strbr|  dualbound   | primalbound  |  gap   | compl. 
r 0.1s|     1 |     0 |  1861 |     - |simplero|   0 | 861 |  77 |  77 |   0 |  0 |   0 |   0 |      --      | 3.188836e+01 |    Inf | unknown
r 0.1s|     1 |     0 |  1892 |     - |simplero|   0 | 872 |  77 |  77 |   0 |  0 |   0 |   0 |      --      | 3.154229e+01 |    Inf | unknown
r 0.1s|     1 |     0 |  1900 |     - |simplero|   0 | 872 |  77 |  77 |   0 |  0 |   0 |   0 |      --      | 3.153890e+01 |    Inf | unknown
r 0.1s|     1 |     0 |  1938 |     - |simplero|   0 | 883 |  77 |  77 |   0 |  0 |   0 |   0 |      --      | 3.128571e+01 |    Inf | unknown
r 0.1s|     1 |     0 |  1941 |     - |simplero|   0 | 883 |  77 |  77 |   0 |  0 |   0 |   0 |      --      | 3.128549e+01 |    Inf | unknown
r 0.1s|     1 |     0 |  1965 |     - |simplero|   0 | 894 |  77 |  77 |   0 |  0 |   0 |   0 |      --      | 3.107464e+01 |    Inf | unknown
r 0.1s|     1 |     0 |  1987 |     - |simplero|   0 | 894 |  77 |  77 |   0 |  0 |   0 |   0 |      --      | 3.100545e+01 |    Inf | unknown
r 0.1s|     1 |     0 |  1992 |     - |simplero|   0 | 894 |  77 |  77 |   0 |  0 |   0 |   0 |      --      | 3.100253e+01 |    Inf | unknown
r 0.1s|     1 |     0 |  2026 |     - |simplero|   0 | 905 |  77 |  77 |   0 |  0 |   0 |   0 |      --      | 3.078320e+01 |    Inf | unknown
r 0.1s|     1 |     0 |  2040 |     - |simplero|   0 | 905 |  77 |  77 |   0 |  0 |   0 |   0 |      --      | 3.073923e+01 |    Inf | unknown
r 0.1s|     1 |     0 |  2067 |     - |simplero|   0 | 916 |  77 |  77 |   0 |  0 |   0 |   0 |      --      | 3.051724e+01 |    Inf | unknown
r 0.1s|     1 |     0 |  2104 |     - |simplero|   0 | 926 |  77 |  77 |   0 |  0 |   0 |   0 |      --      | 3.032877e+01 |    Inf | unknown
r 0.1s|     1 |     0 |  2113 |     - |simplero|   0 | 926 |  77 |  77 |   0 |  0 |   0 |   0 |      --      | 3.031609e+01 |    Inf | unknown
r 0.1s|     1 |     0 |  2147 |     - |simplero|   0 | 937 |  77 |  77 |   0 |  0 |   0 |   0 |      --      | 3.021818e+01 |    Inf | unknown
r 0.1s|     1 |     0 |  2161 |     - |simplero|   0 | 937 |  77 |  77 |   0 |  0 |   0 |   0 |      --      | 3.021429e+01 |    Inf | unknown
 time | node  | left  |LP iter|LP it/n|mem/heur|mdpt |vars |cons |rows |cuts |sepa|confs|strbr|  dualbound   | primalbound  |  gap   | compl. 
r 0.1s|     1 |     0 |  2183 |     - |simplero|   0 | 947 |  77 |  77 |   0 |  0 |   0 |   0 |      --      | 3.006250e+01 |    Inf | unknown
r 0.1s|     1 |     0 |  2201 |     - |simplero|   0 | 947 |  77 |  77 |   0 |  0 |   0 |   0 |      --      | 3.000000e+01 |    Inf | unknown
  0.1s|     1 |     0 |  2206 |     - |  4684k |   0 | 950 |  77 |  77 |   0 |  0 |   0 |   0 | 3.000000e+01 | 3.000000e+01 |   0.00%| unknown
  0.1s|     1 |     0 |  2206 |     - |  4684k |   0 | 950 |  77 |  77 |   0 |  0 |   0 |   0 | 3.000000e+01 | 3.000000e+01 |   0.00%| unknown

SCIP Status        : problem is solved [optimal solution found]
Solving Time (sec) : 0.10
Solving Nodes      : 1
Primal Bound       : +3.00000000000000e+01 (45 solutions)
Dual Bound         : +3.00000000000000e+01
Gap                : 0.00 %

written transformed problem to file <results_rootrelaxation/bin012_090_010.srr.lp>
written transformed problem to file <results_rootrelaxation/bin012_090_010.srr.cip>

written solution information to file <results_rootrelaxation/bin012_090_010.srr.sol>



